width = 35;
ICs_number = 22;
IC_widths = [3, 3, 3, 3, 3, 3, 3, 3, 3, 3, 3, 4, 4, 4, 4, 4, 4, 4, 4, 4, 4, 14];
IC_heights = [3, 4, 5, 6, 7, 8, 9, 10, 12, 19, 22, 3, 4, 5, 6, 7, 8, 12, 17, 20, 23, 35];